\ Model Detor
\ LP format - for model browsing. Use MPS format to capture full model detail.
Minimize
  - 45.44782081297109 target_station_pairs[('DTUY',_'popup'),DTE6]
   - 20.61647002695517 target_station_pairs[('DTUY',_'popup'),DXT7]
   - 57.43936243961771 target_station_pairs[('DTUY',_'pinnacle'),DTE6]
   - 11.07281114407177 target_station_pairs[('DTUY',_'pinnacle'),DXT7]
   - 29.27037472174941 target_station_pairs[('DTUY',_'transfer'),DTE6]
   - 43.95841032628464 target_station_pairs[('DTUY',_'transfer'),DXT7]
   - 12.68720372149252 target_station_pairs[('GAZL',_'popup'),DTE6]
   - 16.11111234322908 target_station_pairs[('GAZL',_'popup'),DXT7]
   - 40.31869085299159 target_station_pairs[('GAZL',_'pinnacle'),DTE6]
   - 38.39913075266956 target_station_pairs[('GAZL',_'pinnacle'),DXT7]
   - 34.98394573688108 target_station_pairs[('GAZL',_'transfer'),DTE6]
   - 28.69714212022786 target_station_pairs[('GAZL',_'transfer'),DXT7]
   - 17.9465612077421 target_station_pairs[('MITF',_'popup'),DTE6]
   - 24.35435118395624 target_station_pairs[('MITF',_'popup'),DXT7]
   - 60 target_station_pairs[('MITF',_'pinnacle'),DTE6]
   - 27.47837557908457 target_station_pairs[('MITF',_'pinnacle'),DXT7]
   - 60 target_station_pairs[('MITF',_'transfer'),DTE6]
   - 28.25327825949902 target_station_pairs[('MITF',_'transfer'),DXT7]
   - 60 target_station_pairs[('AMZL',_'popup'),DTE6]
   - 60 target_station_pairs[('AMZL',_'popup'),DXT7]
   - 49.01778466957702 target_station_pairs[('AMZL',_'pinnacle'),DTE6]
   - 27.17180364558773 target_station_pairs[('AMZL',_'pinnacle'),DXT7]
   - 12.44807933338413 target_station_pairs[('AMZL',_'transfer'),DTE6]
   - 59.31492695851176 target_station_pairs[('AMZL',_'transfer'),DXT7]
   - 14.31993080390128 target_station_pairs[('T-115',_'newdsp1'),DTE6]
   - 14.50855799152055 target_station_pairs[('T-115',_'newdsp1'),DXT7]
   - 60 target_station_pairs[('T-116',_'newdsp2'),DTE6]
   - 60 target_station_pairs[('T-116',_'newdsp2'),DXT7]
   - 40.75311926399321 target_station_pairs[('T117',_'newdsp3'),DTE6]
   - 35.07605601327146 target_station_pairs[('T117',_'newdsp3'),DXT7]
   - 2.335702426310306 dsp_target_roles[DTUY,popup]
   - 3.3513355379275 dsp_target_roles[DTUY,pinnacle]
   - 2.515968567740603 dsp_target_roles[DTUY,transfer]
   - 1.486912740105336 dsp_target_roles[GAZL,popup]
   - 2.236469512746132 dsp_target_roles[GAZL,pinnacle]
   - 3.249203209550735 dsp_target_roles[GAZL,transfer]
   - 1.410191392443057 dsp_target_roles[MITF,popup]
   - 2.020474077668704 dsp_target_roles[MITF,pinnacle]
   - 3.122761628756505 dsp_target_roles[MITF,transfer]
   - 4.689292093780272 dsp_target_roles[AMZL,popup]
   - 3.177749865218511 dsp_target_roles[AMZL,pinnacle]
   - 3.032006020543829 dsp_target_roles[AMZL,transfer]
   - 4.933215564363237 dsp_target_roles[T-115,newdsp1]
   - 1.937905288568599 dsp_target_roles[T-116,newdsp2]
   - 2.267370901091287 dsp_target_roles[T117,newdsp3] + 265 Constant
Subject To
 target_station[DTE6]: target_station_pairs[('DTUY',_'popup'),DTE6]
   + target_station_pairs[('DTUY',_'pinnacle'),DTE6]
   + target_station_pairs[('DTUY',_'transfer'),DTE6]
   + target_station_pairs[('GAZL',_'popup'),DTE6]
   + target_station_pairs[('GAZL',_'pinnacle'),DTE6]
   + target_station_pairs[('GAZL',_'transfer'),DTE6]
   + target_station_pairs[('MITF',_'popup'),DTE6]
   + target_station_pairs[('MITF',_'pinnacle'),DTE6]
   + target_station_pairs[('MITF',_'transfer'),DTE6]
   + target_station_pairs[('AMZL',_'popup'),DTE6]
   + target_station_pairs[('AMZL',_'pinnacle'),DTE6]
   + target_station_pairs[('AMZL',_'transfer'),DTE6]
   + target_station_pairs[('T-115',_'newdsp1'),DTE6]
   + target_station_pairs[('T-116',_'newdsp2'),DTE6]
   + target_station_pairs[('T117',_'newdsp3'),DTE6] <= 1
 target_station[DXT7]: target_station_pairs[('DTUY',_'popup'),DXT7]
   + target_station_pairs[('DTUY',_'pinnacle'),DXT7]
   + target_station_pairs[('DTUY',_'transfer'),DXT7]
   + target_station_pairs[('GAZL',_'popup'),DXT7]
   + target_station_pairs[('GAZL',_'pinnacle'),DXT7]
   + target_station_pairs[('GAZL',_'transfer'),DXT7]
   + target_station_pairs[('MITF',_'popup'),DXT7]
   + target_station_pairs[('MITF',_'pinnacle'),DXT7]
   + target_station_pairs[('MITF',_'transfer'),DXT7]
   + target_station_pairs[('AMZL',_'popup'),DXT7]
   + target_station_pairs[('AMZL',_'pinnacle'),DXT7]
   + target_station_pairs[('AMZL',_'transfer'),DXT7]
   + target_station_pairs[('T-115',_'newdsp1'),DXT7]
   + target_station_pairs[('T-116',_'newdsp2'),DXT7]
   + target_station_pairs[('T117',_'newdsp3'),DXT7] <= 1
 dsp_role[DTUY]: dsp_target_roles[DTUY,popup]
   + dsp_target_roles[DTUY,pinnacle] + dsp_target_roles[DTUY,transfer]
   <= 1
 dsp_role[GAZL]: dsp_target_roles[GAZL,popup]
   + dsp_target_roles[GAZL,pinnacle] + dsp_target_roles[GAZL,transfer]
   <= 1
 dsp_role[MITF]: dsp_target_roles[MITF,popup]
   + dsp_target_roles[MITF,pinnacle] + dsp_target_roles[MITF,transfer]
   <= 1
 dsp_role[AMZL]: dsp_target_roles[AMZL,popup]
   + dsp_target_roles[AMZL,pinnacle] + dsp_target_roles[AMZL,transfer]
   <= 1
Bounds
 Constant = 1
Binaries
 target_station_pairs[('DTUY',_'popup'),DTE6]
 target_station_pairs[('DTUY',_'popup'),DXT7]
 target_station_pairs[('DTUY',_'pinnacle'),DTE6]
 target_station_pairs[('DTUY',_'pinnacle'),DXT7]
 target_station_pairs[('DTUY',_'transfer'),DTE6]
 target_station_pairs[('DTUY',_'transfer'),DXT7]
 target_station_pairs[('GAZL',_'popup'),DTE6]
 target_station_pairs[('GAZL',_'popup'),DXT7]
 target_station_pairs[('GAZL',_'pinnacle'),DTE6]
 target_station_pairs[('GAZL',_'pinnacle'),DXT7]
 target_station_pairs[('GAZL',_'transfer'),DTE6]
 target_station_pairs[('GAZL',_'transfer'),DXT7]
 target_station_pairs[('MITF',_'popup'),DTE6]
 target_station_pairs[('MITF',_'popup'),DXT7]
 target_station_pairs[('MITF',_'pinnacle'),DTE6]
 target_station_pairs[('MITF',_'pinnacle'),DXT7]
 target_station_pairs[('MITF',_'transfer'),DTE6]
 target_station_pairs[('MITF',_'transfer'),DXT7]
 target_station_pairs[('AMZL',_'popup'),DTE6]
 target_station_pairs[('AMZL',_'popup'),DXT7]
 target_station_pairs[('AMZL',_'pinnacle'),DTE6]
 target_station_pairs[('AMZL',_'pinnacle'),DXT7]
 target_station_pairs[('AMZL',_'transfer'),DTE6]
 target_station_pairs[('AMZL',_'transfer'),DXT7]
 target_station_pairs[('T-115',_'newdsp1'),DTE6]
 target_station_pairs[('T-115',_'newdsp1'),DXT7]
 target_station_pairs[('T-116',_'newdsp2'),DTE6]
 target_station_pairs[('T-116',_'newdsp2'),DXT7]
 target_station_pairs[('T117',_'newdsp3'),DTE6]
 target_station_pairs[('T117',_'newdsp3'),DXT7]
 dsp_target_roles[DTUY,popup] dsp_target_roles[DTUY,pinnacle]
 dsp_target_roles[DTUY,transfer] dsp_target_roles[GAZL,popup]
 dsp_target_roles[GAZL,pinnacle] dsp_target_roles[GAZL,transfer]
 dsp_target_roles[MITF,popup] dsp_target_roles[MITF,pinnacle]
 dsp_target_roles[MITF,transfer] dsp_target_roles[AMZL,popup]
 dsp_target_roles[AMZL,pinnacle] dsp_target_roles[AMZL,transfer]
 dsp_target_roles[T-115,newdsp1] dsp_target_roles[T-116,newdsp2]
 dsp_target_roles[T117,newdsp3]
End
